\ Model knapsack_60_10_2
\ LP format - for model browsing. Use MPS format to capture full model detail.
\ Signature: 0xabe5cb50c6396a45
Minimize
  - 241 y[0] - 1026 y[1] - 786 y[2] - 806 y[3] - 828 y[4] - 716 y[5]
   - 449 y[6] - 812 y[7] - 630 y[8] - 973 y[9] - 735 y[10] - 1033 y[11]
   - 431 y[12] - 981 y[13] - 353 y[14] - 291 y[15] - 951 y[16] - 194 y[17]
   - 1048 y[18] - 282 y[19] - 157 y[20] - 251 y[21] - 345 y[22] - 683 y[23]
   - 462 y[24] - 855 y[25] - 346 y[26] - 554 y[27] - 462 y[28] - 907 y[29]
   - 186 y[30] - 828 y[31] - 623 y[32] - 434 y[33] - 214 y[34] - 290 y[35]
   - 571 y[36] - 246 y[37] - 396 y[38] - 505 y[39] - 271 y[40] - 461 y[41]
   - 773 y[42] - 791 y[43] - 974 y[44] - 352 y[45] - 228 y[46] - 1040 y[47]
   - 926 y[48] - 141 y[49] - 590 y[50] - 1006 y[51] - 316 y[52] - 300 y[53]
   - 517 y[54] - 799 y[55] - 871 y[56] - 582 y[57] - 269 y[58] - 864 y[59]
Subject To
 primal_upper: 141 y[0] + 926 y[1] + 686 y[2] + 706 y[3] + 728 y[4]
   + 616 y[5] + 349 y[6] + 712 y[7] + 530 y[8] + 873 y[9] + 635 y[10]
   + 933 y[11] + 331 y[12] + 881 y[13] + 253 y[14] + 191 y[15] + 851 y[16]
   + 94 y[17] + 948 y[18] + 182 y[19] + 57 y[20] + 151 y[21] + 245 y[22]
   + 583 y[23] + 362 y[24] + 755 y[25] + 246 y[26] + 454 y[27] + 362 y[28]
   + 807 y[29] + 86 y[30] + 728 y[31] + 523 y[32] + 334 y[33] + 114 y[34]
   + 190 y[35] + 471 y[36] + 146 y[37] + 296 y[38] + 405 y[39] + 171 y[40]
   + 361 y[41] + 673 y[42] + 691 y[43] + 874 y[44] + 252 y[45] + 128 y[46]
   + 940 y[47] + 826 y[48] + 41 y[49] + 490 y[50] + 906 y[51] + 216 y[52]
   + 200 y[53] + 417 y[54] + 699 y[55] + 771 y[56] + 482 y[57] + 169 y[58]
   + 764 y[59] + 14 z[0] + 93 z[1] + 69 z[2] + 71 z[3] + 73 z[4] + 62 z[5]
   + 35 z[6] + 71 z[7] + 53 z[8] + 87 z[9] + 64 z[10] + 93 z[11] + 33 z[12]
   + 88 z[13] + 25 z[14] + 19 z[15] + 85 z[16] + 9 z[17] + 95 z[18]
   + 18 z[19] + 6 z[20] + 15 z[21] + 24 z[22] + 58 z[23] + 36 z[24]
   + 76 z[25] + 25 z[26] + 45 z[27] + 36 z[28] + 81 z[29] + 9 z[30]
   + 73 z[31] + 52 z[32] + 33 z[33] + 11 z[34] + 19 z[35] + 47 z[36]
   + 15 z[37] + 30 z[38] + 40 z[39] + 17 z[40] + 36 z[41] + 67 z[42]
   + 69 z[43] + 87 z[44] + 25 z[45] + 13 z[46] + 94 z[47] + 83 z[48]
   + 4 z[49] + 49 z[50] + 91 z[51] + 22 z[52] + 20 z[53] + 42 z[54]
   + 70 z[55] + 77 z[56] + 48 z[57] + 17 z[58] + 76 z[59] <= 9650
 primal_lower0: - 28 y[0] - 43 y[1] - 154 y[2] - 57 y[3] - 35 y[4]
   - 148 y[5] - 77 y[6] - 191 y[7] - 93 y[8] - 125 y[9] - 115 y[10]
   - 4 y[11] - 63 y[12] - 157 y[13] - 84 y[14] - 45 y[15] - 80 y[16]
   - 178 y[17] - 32 y[18] - 145 y[19] - 23 y[20] - 128 y[21] - 134 y[22]
   - 126 y[23] - 147 y[24] - 179 y[25] - 82 y[26] - 50 y[27] - 40 y[28]
   - 41 y[29] - 100 y[30] - 20 y[31] - 4 y[32] - 21 y[33] - 39 y[34]
   - 11 y[35] - 123 y[36] - 116 y[37] - 178 y[38] - 53 y[39] - 118 y[40]
   - 125 y[41] - 61 y[42] - 14 y[43] - 135 y[44] - 164 y[45] - 58 y[46]
   - 43 y[47] - 55 y[48] - 149 y[49] - 81 y[50] - 13 y[51] - 23 y[52]
   - 70 y[53] - 64 y[54] - 14 y[55] - 136 y[56] - 25 y[57] - 101 y[58]
   - 71 y[59] + 923 u[0] + 836 u[1] + 980 u[2] + 768 u[3] + 278 u[4]
   + 238 u[5] + 931 u[6] + 934 u[7] + 192 u[8] + 519 u[9] + 489 u[10]
   + 723 u[11] + 649 u[12] + 695 u[13] + 899 u[14] + 629 u[15] + 737 u[16]
   + 932 u[17] + 258 u[18] + 844 u[19] + 271 u[20] + 549 u[21] + 363 u[22]
   + 213 u[23] + 496 u[24] + 545 u[25] + 724 u[26] + 332 u[27] + 912 u[28]
   + 677 u[29] + 60 u[30] + 982 u[31] + 481 u[32] + 900 u[33] + 160 u[34]
   + 28 u[35] + 757 u[36] + 816 u[37] + 838 u[38] + 875 u[39] + 289 u[40]
   + 119 u[41] + 911 u[42] + 481 u[43] + 72 u[44] + 466 u[45] + 846 u[46]
   + 986 u[47] + 248 u[48] + 575 u[49] + 304 u[50] + 312 u[51] + 454 u[52]
   + 598 u[53] + 327 u[54] + 881 u[55] + 201 u[56] + 992 u[57] + 855 u[58]
   + 194 u[59] <= 11514
 primal_lower1: - 11 y[0] - 13 y[1] - 7 y[2] - 6 y[3] - 14 y[4] - 8 y[5]
   - 15 y[6] - 5 y[8] - 15 y[9] - 10 y[10] - y[11] - 3 y[12] - 9 y[13]
   - 12 y[14] - 6 y[15] - 12 y[16] - 4 y[17] - 10 y[18] - 12 y[19]
   - 13 y[20] - 4 y[21] - y[22] - 3 y[23] - 3 y[24] - 4 y[25] - 13 y[27]
   - 4 y[28] - 16 y[29] - 14 y[30] - 2 y[31] - 3 y[32] - 14 y[33] - 5 y[34]
   - 15 y[35] - 2 y[36] - 11 y[37] - 4 y[38] - 11 y[39] - 3 y[40]
   - 14 y[41] - 4 y[42] - 2 y[43] - y[44] - 9 y[45] - 12 y[46] - 5 y[47]
   - 2 y[48] - 2 y[49] - 6 y[50] - 5 y[51] - 10 y[52] - y[54] - 10 y[55]
   - 9 y[56] - 15 y[57] - 16 y[58] - 15 y[59] + 933 u[0] + 990 u[1]
   + 526 u[2] + 138 u[3] + 816 u[4] + 744 u[5] + 365 u[6] + 208 u[7]
   + 170 u[8] + 513 u[9] + 179 u[10] + 173 u[11] + 443 u[12] + 17 u[13]
   + 317 u[14] + 687 u[15] + 595 u[16] + 126 u[17] + 172 u[18] + 606 u[19]
   + 497 u[20] + 287 u[21] + 557 u[22] + 263 u[23] + 34 u[24] + 955 u[25]
   + 110 u[26] + 358 u[27] + 66 u[28] + 719 u[29] + 670 u[30] + 176 u[31]
   + 523 u[32] + 878 u[33] + 226 u[34] + 734 u[35] + 591 u[36] + 618 u[37]
   + 240 u[38] + 269 u[39] + 83 u[40] + 569 u[41] + 681 u[42] + 731 u[43]
   + 818 u[44] + 100 u[45] + 480 u[46] + 796 u[47] + 66 u[48] + 809 u[49]
   + 138 u[50] + 146 u[51] + 936 u[52] + 512 u[53] + 561 u[54] + 699 u[55]
   + 579 u[56] + 2 u[57] + 849 u[58] + 484 u[59] <= 990
 primal_lower2: - 105 y[0] - 47 y[1] - 65 y[2] - 87 y[3] - 130 y[4]
   - 113 y[5] - 126 y[6] - 149 y[7] - 158 y[8] - 51 y[9] - 149 y[10]
   - 101 y[11] - 124 y[12] - 165 y[13] - 37 y[14] - 155 y[15] - 95 y[16]
   - 89 y[17] - 32 y[18] - 8 y[19] - 56 y[20] - 97 y[21] - 116 y[22]
   - 53 y[23] - 26 y[24] - 28 y[25] - 24 y[26] - 55 y[27] - 114 y[28]
   - 69 y[29] - 51 y[30] - 149 y[31] - 114 y[32] - 113 y[33] - 171 y[34]
   - 163 y[35] - 14 y[36] - 29 y[37] - 64 y[38] - 74 y[39] - 98 y[40]
   - 8 y[41] - 111 y[42] - 126 y[43] - 159 y[44] - 114 y[45] - 56 y[46]
   - 139 y[47] - 113 y[48] - 12 y[49] - 9 y[50] - 158 y[51] - 51 y[52]
   - 41 y[53] - 148 y[54] - 109 y[55] - 15 y[56] - 98 y[57] - 169 y[58]
   - 92 y[59] + 238 u[0] + 668 u[1] + 562 u[2] + 373 u[3] + 944 u[4]
   + 534 u[5] + 889 u[6] + 650 u[7] + 810 u[8] + 72 u[9] + 904 u[10]
   + 399 u[11] + 827 u[12] + 952 u[13] + 450 u[14] + 466 u[15] + 91 u[16]
   + 269 u[17] + 480 u[18] + 865 u[19] + 634 u[20] + 93 u[21] + 769 u[22]
   + 321 u[23] + 322 u[24] + 681 u[25] + 610 u[26] + 944 u[27] + 411 u[28]
   + 517 u[29] + 675 u[30] + 930 u[31] + 523 u[32] + 780 u[33] + 486 u[34]
   + 664 u[35] + 327 u[36] + 417 u[37] + 308 u[38] + 528 u[39] + 427 u[40]
   + 736 u[41] + 126 u[42] + 45 u[43] + 458 u[44] + 674 u[45] + 661 u[46]
   + 662 u[47] + 43 u[48] + 639 u[49] + 894 u[50] + 389 u[51] + 752 u[52]
   + 470 u[53] + 142 u[54] + 390 u[55] + 532 u[56] + 344 u[57] + 549 u[58]
   + 999 u[59] <= 10771
 primal_lower3: - 6 y[0] - 4 y[1] - 7 y[2] - 10 y[3] - 5 y[4] - 7 y[5]
   - 10 y[6] - 6 y[7] - 3 y[8] - 5 y[9] - 5 y[10] - 6 y[11] - 2 y[12]
   - 11 y[13] - 14 y[14] - 3 y[15] - 6 y[16] - 15 y[17] - 14 y[18]
   - 15 y[19] - 5 y[20] - 5 y[21] - 3 y[22] - 4 y[23] - 10 y[24] - 13 y[25]
   - 13 y[26] - 11 y[27] - 9 y[28] - 15 y[29] - 15 y[30] - 12 y[31]
   - 7 y[32] - 15 y[33] - 15 y[34] - 3 y[35] - 10 y[36] - 11 y[37]
   - 4 y[38] - 8 y[39] - 9 y[40] - y[41] - 8 y[42] - 3 y[43] - 3 y[44]
   - 11 y[45] - 10 y[48] - 4 y[49] - 14 y[50] - 4 y[51] - 10 y[52]
   - 6 y[53] - 7 y[54] - 13 y[55] - 7 y[56] - 12 y[57] - 14 y[58] - 2 y[59]
   + 449 u[0] + 962 u[1] + 530 u[2] + 918 u[3] + 508 u[4] + 772 u[5]
   + 889 u[6] + 156 u[7] + 734 u[8] + 437 u[9] + 343 u[10] + 633 u[11]
   + 799 u[12] + 309 u[13] + 793 u[14] + 587 u[15] + 807 u[16] + 74 u[17]
   + 496 u[18] + 602 u[19] + 973 u[20] + 211 u[21] + 81 u[22] + 35 u[23]
   + 78 u[24] + 151 u[25] + 962 u[26] + 810 u[27] + 54 u[28] + 155 u[29]
   + 514 u[30] + 300 u[31] + 679 u[32] + 874 u[33] + 454 u[34] + 650 u[35]
   + 139 u[36] + 14 u[37] + 244 u[38] + 33 u[39] + 399 u[40] + 461 u[41]
   + 421 u[42] + 911 u[43] + 838 u[44] + 792 u[45] + 812 u[46] + 264 u[47]
   + 30 u[48] + 853 u[49] + 270 u[50] + 710 u[51] + 412 u[52] + 188 u[53]
   + 941 u[54] + 319 u[55] + 351 u[56] + 550 u[57] + 349 u[58] + 952 u[59]
   <= 973
 primal_lower4: - 11 y[0] - 12 y[1] - y[4] - 7 y[6] - 3 y[7] - 2 y[8]
   - 5 y[9] - 13 y[10] - 4 y[11] - y[12] - 9 y[13] - 10 y[14] - 4 y[15]
   - 11 y[16] - y[17] - 12 y[18] - 11 y[19] - y[20] - 12 y[21] - 5 y[22]
   - 6 y[23] - 15 y[24] - 2 y[25] - 5 y[26] - 10 y[28] - 13 y[30]
   - 11 y[31] - 3 y[32] - 13 y[33] - 13 y[34] - y[35] - y[36] - 4 y[37]
   - 7 y[38] - 4 y[39] - 14 y[41] - 7 y[42] - 9 y[43] - 6 y[44] - y[45]
   - 3 y[46] - 7 y[47] - 3 y[48] - y[49] - 6 y[50] - 6 y[51] - 3 y[52]
   - 6 y[54] - 14 y[55] - 9 y[56] - 4 y[58] - 6 y[59] + 316 u[0] + 146 u[1]
   + 568 u[2] + 131 u[3] + 934 u[4] + 188 u[5] + 279 u[6] + 464 u[7]
   + 488 u[8] + 230 u[9] + 798 u[10] + 333 u[11] + 937 u[12] + 622 u[13]
   + 176 u[14] + 888 u[15] + 737 u[16] + 115 u[17] + 294 u[18] + 295 u[19]
   + 16 u[20] + 427 u[21] + 783 u[22] + 47 u[23] + 584 u[24] + 791 u[25]
   + 960 u[26] + 902 u[27] + 593 u[28] + 467 u[29] + 185 u[30] + 240 u[31]
   + 841 u[32] + 218 u[33] + 604 u[34] + 238 u[35] + 557 u[36] + 583 u[37]
   + 938 u[38] + 534 u[39] + u[40] + 910 u[41] + 884 u[42] + 91 u[43]
   + 408 u[44] + 280 u[45] + 643 u[46] + 788 u[47] + 817 u[48] + 133 u[49]
   + 852 u[50] + 51 u[51] + 790 u[52] + 844 u[53] + 460 u[54] + 252 u[55]
   + 370 u[56] + 422 u[57] + 395 u[58] + 389 u[59] <= 960
 primal_lower5: - 138 y[0] - 50 y[1] - 30 y[2] - 97 y[3] - 163 y[4]
   - 6 y[5] - 84 y[6] - 114 y[7] - 141 y[8] - 39 y[9] - 107 y[10]
   - 95 y[11] - 154 y[12] - 137 y[13] - 98 y[14] - 31 y[15] - 20 y[16]
   - 73 y[17] - 182 y[18] - 73 y[19] - 105 y[20] - 109 y[21] - 53 y[22]
   - 167 y[23] - 140 y[24] - 108 y[25] - 85 y[26] - 26 y[27] - 22 y[28]
   - 20 y[29] - 105 y[30] - 68 y[31] - 156 y[32] - 113 y[33] - 177 y[34]
   - 55 y[35] - 9 y[36] - 37 y[37] - 26 y[38] - 45 y[39] - 18 y[40] - y[41]
   - 162 y[42] - 64 y[43] - 83 y[44] - 67 y[45] - 8 y[46] - 49 y[47]
   - 163 y[48] - 145 y[49] - 96 y[50] - 40 y[51] - 171 y[52] - 168 y[53]
   - 111 y[54] - 20 y[55] - 90 y[56] - 106 y[57] - 96 y[58] - 71 y[59]
   + 133 u[0] + 199 u[1] + 721 u[2] + 472 u[3] + 615 u[4] + 721 u[5]
   + 288 u[6] + 765 u[7] + 297 u[8] + 595 u[9] + 479 u[10] + 802 u[11]
   + 778 u[12] + 627 u[13] + 105 u[14] + 629 u[15] + 418 u[16] + 856 u[17]
   + 711 u[18] + 692 u[19] + 545 u[20] + 560 u[21] + 704 u[22] + 708 u[23]
   + 985 u[24] + 212 u[25] + 969 u[26] + 235 u[27] + 42 u[28] + 584 u[29]
   + 642 u[30] + 253 u[31] + 994 u[32] + 607 u[33] + 957 u[34] + 435 u[35]
   + 934 u[36] + 796 u[37] + 11 u[38] + 11 u[39] + 194 u[40] + 875 u[41]
   + 781 u[42] + 696 u[43] + 289 u[44] + 565 u[45] + 388 u[46] + 249 u[47]
   + 890 u[48] + 338 u[49] + 789 u[50] + 728 u[51] + 519 u[52] + 425 u[53]
   + 53 u[54] + 777 u[55] + 483 u[56] + 859 u[57] + 780 u[58] + 682 u[59]
   <= 11149
 primal_lower6: - 9 y[0] - 102 y[1] - 42 y[2] - 117 y[3] - 104 y[4]
   - 85 y[5] - 146 y[6] - 100 y[7] - 133 y[8] - 178 y[9] - 118 y[10]
   - 109 y[11] - 71 y[12] - 66 y[13] - 6 y[14] - 64 y[15] - 172 y[16]
   - 139 y[17] - 116 y[18] - 167 y[19] - 48 y[20] - 77 y[21] - 170 y[22]
   - 105 y[23] - 47 y[24] - 96 y[25] - 142 y[26] - 54 y[27] - 81 y[28]
   - 49 y[29] - 141 y[30] - 64 y[32] - 154 y[33] - 103 y[34] - 34 y[35]
   - 37 y[36] - 25 y[37] - 141 y[38] - 75 y[39] - 176 y[40] - 153 y[41]
   - 135 y[42] - 75 y[43] - 137 y[44] - 13 y[45] - 134 y[46] - 155 y[47]
   - 172 y[48] - 110 y[49] - 155 y[50] - 90 y[51] - 136 y[52] - 92 y[53]
   - 116 y[54] - 145 y[55] - 138 y[56] - 105 y[57] - 18 y[58] - 2 y[59]
   + 796 u[0] + 506 u[1] + 32 u[2] + 211 u[3] + 582 u[4] + 876 u[5]
   + 655 u[6] + 560 u[7] + 656 u[8] + 982 u[9] + 78 u[10] + 717 u[11]
   + 113 u[12] + 566 u[13] + 160 u[14] + 664 u[15] + 393 u[16] + 915 u[17]
   + 534 u[18] + 359 u[19] + 560 u[20] + 715 u[21] + 639 u[22] + 919 u[23]
   + 616 u[24] + 951 u[25] + 400 u[26] + 798 u[27] + 265 u[28] + 179 u[29]
   + 481 u[30] + 584 u[31] + 641 u[32] + 778 u[33] + 492 u[34] + 894 u[35]
   + 941 u[36] + 55 u[37] + 522 u[38] + 190 u[39] + 369 u[40] + 174 u[41]
   + 140 u[42] + 875 u[43] + 704 u[44] + 72 u[45] + 251 u[46] + 860 u[47]
   + 913 u[48] + 237 u[49] + 644 u[50] + 827 u[51] + 6 u[52] + 76 u[53]
   + 932 u[54] + 964 u[55] + 802 u[56] + 566 u[57] + 203 u[58] + 741 u[59]
   <= 10777
 primal_lower7: - 173 y[0] - 124 y[1] - 95 y[2] - 53 y[3] - 39 y[4]
   - 101 y[5] - 18 y[6] - 176 y[7] - 94 y[8] - 129 y[9] - 56 y[10]
   - 33 y[11] - 115 y[12] - 69 y[13] - 92 y[14] - 115 y[15] - 72 y[16]
   - 38 y[17] - 118 y[18] - 157 y[19] - 154 y[20] - 97 y[21] - 93 y[22]
   - 27 y[23] - 14 y[24] - 113 y[25] - 169 y[26] - 71 y[27] - 172 y[28]
   - 106 y[29] - 10 y[30] - 141 y[31] - 18 y[32] - 158 y[33] - 96 y[34]
   - 172 y[35] - 150 y[36] - 82 y[37] - 23 y[38] - 63 y[39] - 147 y[40]
   - 157 y[41] - 96 y[42] - 44 y[43] - 127 y[44] - 7 y[45] - 121 y[46]
   - 179 y[47] - 138 y[48] - 130 y[49] - 108 y[50] - 7 y[51] - 46 y[52]
   - 130 y[53] - 50 y[54] - 134 y[55] - 96 y[56] - 81 y[57] - 147 y[58]
   - 58 y[59] + 72 u[0] + 406 u[1] + 508 u[2] + 799 u[3] + 466 u[4]
   + 792 u[5] + 363 u[6] + 212 u[7] + 644 u[8] + 530 u[9] + 962 u[10]
   + 849 u[11] + 61 u[12] + 298 u[13] + 124 u[14] + 540 u[15] + 117 u[16]
   + 791 u[17] + 946 u[18] + 723 u[19] + 580 u[20] + 967 u[21] + 779 u[22]
   + 211 u[23] + 124 u[24] + 915 u[25] + 892 u[26] + 514 u[27] + 709 u[28]
   + 999 u[29] + 581 u[30] + 364 u[31] + 373 u[32] + 310 u[33] + 248 u[34]
   + 634 u[35] + 945 u[36] + 307 u[37] + 62 u[38] + 706 u[39] + 365 u[40]
   + 738 u[41] + 800 u[42] + 119 u[43] + 908 u[44] + 788 u[45] + 695 u[46]
   + 352 u[47] + 205 u[48] + 345 u[49] + 592 u[50] + 239 u[51] + 770 u[52]
   + 784 u[53] + 392 u[54] + 896 u[55] + 838 u[56] + 754 u[57] + 495 u[58]
   + 65 u[59] <= 10854
 primal_lower8: - 43 y[0] - 115 y[1] - 78 y[2] - 123 y[3] - 59 y[4]
   - 45 y[5] - 7 y[6] - 80 y[7] - 4 y[8] - 72 y[9] - 136 y[10] - 136 y[11]
   - 95 y[12] - 57 y[13] - 134 y[14] - 147 y[15] - 127 y[16] - 82 y[17]
   - 20 y[18] - 106 y[19] - 136 y[20] - 91 y[21] - 64 y[22] - 9 y[23]
   - 154 y[24] - 64 y[25] - 28 y[26] - 7 y[27] - 52 y[28] - 56 y[29]
   - 8 y[30] - 104 y[31] - 30 y[32] - 105 y[33] - 122 y[34] - 115 y[35]
   - 51 y[36] - 151 y[37] - 96 y[38] - 115 y[39] - 27 y[40] - 131 y[41]
   - 109 y[42] - 42 y[43] - 34 y[44] - 78 y[45] - 119 y[46] - 106 y[47]
   - 73 y[48] - 19 y[49] - 122 y[50] - 45 y[51] - 116 y[52] - 54 y[53]
   - 17 y[54] - 124 y[55] - 104 y[56] - 20 y[57] - 77 y[58] - 20 y[59]
   + 758 u[0] + 12 u[1] + 66 u[2] + 349 u[3] + 80 u[4] + 558 u[5]
   + 329 u[6] + 538 u[7] + 562 u[8] + 800 u[9] + 32 u[10] + 639 u[11]
   + 179 u[12] + 840 u[13] + 946 u[14] + 882 u[15] + 291 u[16] + 309 u[17]
   + 728 u[18] + 297 u[19] + 842 u[20] + 749 u[21] + 849 u[22] + 281 u[23]
   + 554 u[24] + 41 u[25] + 498 u[26] + 856 u[27] + 211 u[28] + 637 u[29]
   + 307 u[30] + 562 u[31] + 99 u[32] + 148 u[33] + 622 u[34] + 504 u[35]
   + 751 u[36] + 393 u[37] + 364 u[38] + 992 u[39] + 835 u[40] + 136 u[41]
   + 46 u[42] + 301 u[43] + 682 u[44] + 106 u[45] + 549 u[46] + 534 u[47]
   + 203 u[48] + 127 u[49] + 630 u[50] + 773 u[51] + 752 u[52] + 902 u[53]
   + 102 u[54] + 30 u[55] + 932 u[56] + 256 u[57] + 205 u[58] + 535 u[59]
   <= 9363
 primal_lower9: - 14 y[0] - 5 y[1] - 6 y[2] - 11 y[3] - 15 y[4] - 11 y[6]
   - 15 y[7] - 10 y[8] - 12 y[9] - 11 y[10] - 15 y[11] - 14 y[12]
   - 14 y[14] - 3 y[15] - 11 y[16] - 8 y[17] - 7 y[18] - 8 y[19] - 13 y[20]
   - 13 y[21] - 4 y[22] - 12 y[23] - 7 y[24] - 14 y[25] - 3 y[26]
   - 14 y[27] - 10 y[28] - 9 y[29] - y[30] - 15 y[31] - 8 y[32] - y[33]
   - 10 y[34] - 9 y[35] - 5 y[36] - y[37] - 4 y[38] - 11 y[39] - 12 y[40]
   - 2 y[41] - 15 y[42] - 5 y[43] - 4 y[44] - 2 y[45] - 3 y[46] - 12 y[47]
   - 6 y[48] - 5 y[50] - y[51] - 13 y[52] - 6 y[53] - 14 y[54] - 7 y[55]
   - 9 y[56] - 9 y[57] - 13 y[58] - 8 y[59] + 154 u[0] + 271 u[1] + 99 u[2]
   + 339 u[3] + 13 u[4] + 249 u[5] + 930 u[6] + 457 u[7] + 791 u[8]
   + 570 u[9] + 888 u[10] + 422 u[11] + 24 u[12] + 242 u[13] + 266 u[14]
   + 960 u[15] + 296 u[16] + 775 u[17] + 193 u[18] + 23 u[19] + 246 u[20]
   + 120 u[21] + 946 u[22] + 296 u[23] + 655 u[24] + 548 u[25] + 499 u[26]
   + 255 u[27] + 615 u[28] + 224 u[29] + 851 u[30] + 537 u[31] + 432 u[32]
   + 55 u[33] + 975 u[34] + 119 u[35] + 564 u[36] + 891 u[37] + 509 u[38]
   + 566 u[39] + 544 u[40] + 74 u[41] + 630 u[42] + 956 u[43] + 791 u[44]
   + 69 u[45] + 77 u[46] + 477 u[47] + 455 u[48] + 394 u[49] + 767 u[50]
   + 59 u[51] + 173 u[52] + 385 u[53] + 390 u[54] + 924 u[55] + 368 u[56]
   + 691 u[57] + 382 u[58] + 117 u[59] <= 975
 mccormick1[0]: - u[0] + z[0] <= 0
 mccormick1[1]: - u[1] + z[1] <= 0
 mccormick1[2]: - u[2] + z[2] <= 0
 mccormick1[3]: - u[3] + z[3] <= 0
 mccormick1[4]: - u[4] + z[4] <= 0
 mccormick1[5]: - u[5] + z[5] <= 0
 mccormick1[6]: - u[6] + z[6] <= 0
 mccormick1[7]: - u[7] + z[7] <= 0
 mccormick1[8]: - u[8] + z[8] <= 0
 mccormick1[9]: - u[9] + z[9] <= 0
 mccormick1[10]: - u[10] + z[10] <= 0
 mccormick1[11]: - u[11] + z[11] <= 0
 mccormick1[12]: - u[12] + z[12] <= 0
 mccormick1[13]: - u[13] + z[13] <= 0
 mccormick1[14]: - u[14] + z[14] <= 0
 mccormick1[15]: - u[15] + z[15] <= 0
 mccormick1[16]: - u[16] + z[16] <= 0
 mccormick1[17]: - u[17] + z[17] <= 0
 mccormick1[18]: - u[18] + z[18] <= 0
 mccormick1[19]: - u[19] + z[19] <= 0
 mccormick1[20]: - u[20] + z[20] <= 0
 mccormick1[21]: - u[21] + z[21] <= 0
 mccormick1[22]: - u[22] + z[22] <= 0
 mccormick1[23]: - u[23] + z[23] <= 0
 mccormick1[24]: - u[24] + z[24] <= 0
 mccormick1[25]: - u[25] + z[25] <= 0
 mccormick1[26]: - u[26] + z[26] <= 0
 mccormick1[27]: - u[27] + z[27] <= 0
 mccormick1[28]: - u[28] + z[28] <= 0
 mccormick1[29]: - u[29] + z[29] <= 0
 mccormick1[30]: - u[30] + z[30] <= 0
 mccormick1[31]: - u[31] + z[31] <= 0
 mccormick1[32]: - u[32] + z[32] <= 0
 mccormick1[33]: - u[33] + z[33] <= 0
 mccormick1[34]: - u[34] + z[34] <= 0
 mccormick1[35]: - u[35] + z[35] <= 0
 mccormick1[36]: - u[36] + z[36] <= 0
 mccormick1[37]: - u[37] + z[37] <= 0
 mccormick1[38]: - u[38] + z[38] <= 0
 mccormick1[39]: - u[39] + z[39] <= 0
 mccormick1[40]: - u[40] + z[40] <= 0
 mccormick1[41]: - u[41] + z[41] <= 0
 mccormick1[42]: - u[42] + z[42] <= 0
 mccormick1[43]: - u[43] + z[43] <= 0
 mccormick1[44]: - u[44] + z[44] <= 0
 mccormick1[45]: - u[45] + z[45] <= 0
 mccormick1[46]: - u[46] + z[46] <= 0
 mccormick1[47]: - u[47] + z[47] <= 0
 mccormick1[48]: - u[48] + z[48] <= 0
 mccormick1[49]: - u[49] + z[49] <= 0
 mccormick1[50]: - u[50] + z[50] <= 0
 mccormick1[51]: - u[51] + z[51] <= 0
 mccormick1[52]: - u[52] + z[52] <= 0
 mccormick1[53]: - u[53] + z[53] <= 0
 mccormick1[54]: - u[54] + z[54] <= 0
 mccormick1[55]: - u[55] + z[55] <= 0
 mccormick1[56]: - u[56] + z[56] <= 0
 mccormick1[57]: - u[57] + z[57] <= 0
 mccormick1[58]: - u[58] + z[58] <= 0
 mccormick1[59]: - u[59] + z[59] <= 0
 mccormick2[0]: - y[0] + z[0] <= 0
 mccormick2[1]: - y[1] + z[1] <= 0
 mccormick2[2]: - y[2] + z[2] <= 0
 mccormick2[3]: - y[3] + z[3] <= 0
 mccormick2[4]: - y[4] + z[4] <= 0
 mccormick2[5]: - y[5] + z[5] <= 0
 mccormick2[6]: - y[6] + z[6] <= 0
 mccormick2[7]: - y[7] + z[7] <= 0
 mccormick2[8]: - y[8] + z[8] <= 0
 mccormick2[9]: - y[9] + z[9] <= 0
 mccormick2[10]: - y[10] + z[10] <= 0
 mccormick2[11]: - y[11] + z[11] <= 0
 mccormick2[12]: - y[12] + z[12] <= 0
 mccormick2[13]: - y[13] + z[13] <= 0
 mccormick2[14]: - y[14] + z[14] <= 0
 mccormick2[15]: - y[15] + z[15] <= 0
 mccormick2[16]: - y[16] + z[16] <= 0
 mccormick2[17]: - y[17] + z[17] <= 0
 mccormick2[18]: - y[18] + z[18] <= 0
 mccormick2[19]: - y[19] + z[19] <= 0
 mccormick2[20]: - y[20] + z[20] <= 0
 mccormick2[21]: - y[21] + z[21] <= 0
 mccormick2[22]: - y[22] + z[22] <= 0
 mccormick2[23]: - y[23] + z[23] <= 0
 mccormick2[24]: - y[24] + z[24] <= 0
 mccormick2[25]: - y[25] + z[25] <= 0
 mccormick2[26]: - y[26] + z[26] <= 0
 mccormick2[27]: - y[27] + z[27] <= 0
 mccormick2[28]: - y[28] + z[28] <= 0
 mccormick2[29]: - y[29] + z[29] <= 0
 mccormick2[30]: - y[30] + z[30] <= 0
 mccormick2[31]: - y[31] + z[31] <= 0
 mccormick2[32]: - y[32] + z[32] <= 0
 mccormick2[33]: - y[33] + z[33] <= 0
 mccormick2[34]: - y[34] + z[34] <= 0
 mccormick2[35]: - y[35] + z[35] <= 0
 mccormick2[36]: - y[36] + z[36] <= 0
 mccormick2[37]: - y[37] + z[37] <= 0
 mccormick2[38]: - y[38] + z[38] <= 0
 mccormick2[39]: - y[39] + z[39] <= 0
 mccormick2[40]: - y[40] + z[40] <= 0
 mccormick2[41]: - y[41] + z[41] <= 0
 mccormick2[42]: - y[42] + z[42] <= 0
 mccormick2[43]: - y[43] + z[43] <= 0
 mccormick2[44]: - y[44] + z[44] <= 0
 mccormick2[45]: - y[45] + z[45] <= 0
 mccormick2[46]: - y[46] + z[46] <= 0
 mccormick2[47]: - y[47] + z[47] <= 0
 mccormick2[48]: - y[48] + z[48] <= 0
 mccormick2[49]: - y[49] + z[49] <= 0
 mccormick2[50]: - y[50] + z[50] <= 0
 mccormick2[51]: - y[51] + z[51] <= 0
 mccormick2[52]: - y[52] + z[52] <= 0
 mccormick2[53]: - y[53] + z[53] <= 0
 mccormick2[54]: - y[54] + z[54] <= 0
 mccormick2[55]: - y[55] + z[55] <= 0
 mccormick2[56]: - y[56] + z[56] <= 0
 mccormick2[57]: - y[57] + z[57] <= 0
 mccormick2[58]: - y[58] + z[58] <= 0
 mccormick2[59]: - y[59] + z[59] <= 0
 mccormick3[0]: y[0] + u[0] - z[0] <= 1
 mccormick3[1]: y[1] + u[1] - z[1] <= 1
 mccormick3[2]: y[2] + u[2] - z[2] <= 1
 mccormick3[3]: y[3] + u[3] - z[3] <= 1
 mccormick3[4]: y[4] + u[4] - z[4] <= 1
 mccormick3[5]: y[5] + u[5] - z[5] <= 1
 mccormick3[6]: y[6] + u[6] - z[6] <= 1
 mccormick3[7]: y[7] + u[7] - z[7] <= 1
 mccormick3[8]: y[8] + u[8] - z[8] <= 1
 mccormick3[9]: y[9] + u[9] - z[9] <= 1
 mccormick3[10]: y[10] + u[10] - z[10] <= 1
 mccormick3[11]: y[11] + u[11] - z[11] <= 1
 mccormick3[12]: y[12] + u[12] - z[12] <= 1
 mccormick3[13]: y[13] + u[13] - z[13] <= 1
 mccormick3[14]: y[14] + u[14] - z[14] <= 1
 mccormick3[15]: y[15] + u[15] - z[15] <= 1
 mccormick3[16]: y[16] + u[16] - z[16] <= 1
 mccormick3[17]: y[17] + u[17] - z[17] <= 1
 mccormick3[18]: y[18] + u[18] - z[18] <= 1
 mccormick3[19]: y[19] + u[19] - z[19] <= 1
 mccormick3[20]: y[20] + u[20] - z[20] <= 1
 mccormick3[21]: y[21] + u[21] - z[21] <= 1
 mccormick3[22]: y[22] + u[22] - z[22] <= 1
 mccormick3[23]: y[23] + u[23] - z[23] <= 1
 mccormick3[24]: y[24] + u[24] - z[24] <= 1
 mccormick3[25]: y[25] + u[25] - z[25] <= 1
 mccormick3[26]: y[26] + u[26] - z[26] <= 1
 mccormick3[27]: y[27] + u[27] - z[27] <= 1
 mccormick3[28]: y[28] + u[28] - z[28] <= 1
 mccormick3[29]: y[29] + u[29] - z[29] <= 1
 mccormick3[30]: y[30] + u[30] - z[30] <= 1
 mccormick3[31]: y[31] + u[31] - z[31] <= 1
 mccormick3[32]: y[32] + u[32] - z[32] <= 1
 mccormick3[33]: y[33] + u[33] - z[33] <= 1
 mccormick3[34]: y[34] + u[34] - z[34] <= 1
 mccormick3[35]: y[35] + u[35] - z[35] <= 1
 mccormick3[36]: y[36] + u[36] - z[36] <= 1
 mccormick3[37]: y[37] + u[37] - z[37] <= 1
 mccormick3[38]: y[38] + u[38] - z[38] <= 1
 mccormick3[39]: y[39] + u[39] - z[39] <= 1
 mccormick3[40]: y[40] + u[40] - z[40] <= 1
 mccormick3[41]: y[41] + u[41] - z[41] <= 1
 mccormick3[42]: y[42] + u[42] - z[42] <= 1
 mccormick3[43]: y[43] + u[43] - z[43] <= 1
 mccormick3[44]: y[44] + u[44] - z[44] <= 1
 mccormick3[45]: y[45] + u[45] - z[45] <= 1
 mccormick3[46]: y[46] + u[46] - z[46] <= 1
 mccormick3[47]: y[47] + u[47] - z[47] <= 1
 mccormick3[48]: y[48] + u[48] - z[48] <= 1
 mccormick3[49]: y[49] + u[49] - z[49] <= 1
 mccormick3[50]: y[50] + u[50] - z[50] <= 1
 mccormick3[51]: y[51] + u[51] - z[51] <= 1
 mccormick3[52]: y[52] + u[52] - z[52] <= 1
 mccormick3[53]: y[53] + u[53] - z[53] <= 1
 mccormick3[54]: y[54] + u[54] - z[54] <= 1
 mccormick3[55]: y[55] + u[55] - z[55] <= 1
 mccormick3[56]: y[56] + u[56] - z[56] <= 1
 mccormick3[57]: y[57] + u[57] - z[57] <= 1
 mccormick3[58]: y[58] + u[58] - z[58] <= 1
 mccormick3[59]: y[59] + u[59] - z[59] <= 1
Bounds
Binaries
 y[0] y[1] y[2] y[3] y[4] y[5] y[6] y[7] y[8] y[9] y[10] y[11] y[12] y[13]
 y[14] y[15] y[16] y[17] y[18] y[19] y[20] y[21] y[22] y[23] y[24] y[25]
 y[26] y[27] y[28] y[29] y[30] y[31] y[32] y[33] y[34] y[35] y[36] y[37]
 y[38] y[39] y[40] y[41] y[42] y[43] y[44] y[45] y[46] y[47] y[48] y[49]
 y[50] y[51] y[52] y[53] y[54] y[55] y[56] y[57] y[58] y[59] u[0] u[1] u[2]
 u[3] u[4] u[5] u[6] u[7] u[8] u[9] u[10] u[11] u[12] u[13] u[14] u[15]
 u[16] u[17] u[18] u[19] u[20] u[21] u[22] u[23] u[24] u[25] u[26] u[27]
 u[28] u[29] u[30] u[31] u[32] u[33] u[34] u[35] u[36] u[37] u[38] u[39]
 u[40] u[41] u[42] u[43] u[44] u[45] u[46] u[47] u[48] u[49] u[50] u[51]
 u[52] u[53] u[54] u[55] u[56] u[57] u[58] u[59] z[0] z[1] z[2] z[3] z[4]
 z[5] z[6] z[7] z[8] z[9] z[10] z[11] z[12] z[13] z[14] z[15] z[16] z[17]
 z[18] z[19] z[20] z[21] z[22] z[23] z[24] z[25] z[26] z[27] z[28] z[29]
 z[30] z[31] z[32] z[33] z[34] z[35] z[36] z[37] z[38] z[39] z[40] z[41]
 z[42] z[43] z[44] z[45] z[46] z[47] z[48] z[49] z[50] z[51] z[52] z[53]
 z[54] z[55] z[56] z[57] z[58] z[59]
End
